DIMACS_lns/graph-1000-761.col
p edge 1000 1831
e 2 440
e 2 909
e 2 823
e 2 145
e 3 848
e 3 599
e 3 816
e 3 882
e 3 21
e 4 367
e 4 990
e 4 444
e 4 369
e 5 236
e 5 227
e 5 617
e 5 563
e 5 136
e 5 441
e 5 943
e 5 949
e 6 814
e 6 123
e 6 14
e 6 141
e 7 577
e 7 57
e 7 230
e 7 273
e 7 944
e 8 727
e 8 133
e 8 813
e 8 283
e 8 803
e 8 964
e 8 789
e 8 76
e 8 25
e 9 976
e 9 761
e 9 470
e 9 675
e 10 123
e 10 323
e 10 650
e 10 664
e 11 910
e 11 72
e 11 792
e 13 73
e 13 164
e 13 954
e 13 217
e 13 351
e 13 594
e 14 721
e 14 259
e 14 526
e 14 394
e 14 453
e 14 987
e 15 891
e 15 177
e 15 231
e 15 609
e 16 304
e 16 536
e 16 209
e 16 454
e 16 248
e 16 234
e 17 504
e 17 801
e 17 278
e 17 908
e 17 105
e 18 137
e 18 190
e 18 138
e 20 808
e 20 139
e 20 69
e 21 185
e 21 471
e 21 957
e 21 75
e 22 858
e 22 973
e 22 657
e 22 248
e 23 222
e 23 37
e 23 630
e 24 976
e 24 419
e 24 524
e 24 410
e 24 728
e 24 852
e 25 649
e 25 867
e 25 602
e 25 604
e 25 616
e 25 774
e 27 263
e 27 521
e 27 921
e 29 48
e 29 45
e 29 264
e 29 516
e 29 105
e 29 769
e 32 235
e 32 346
e 32 210
e 32 150
e 32 655
e 32 224
e 32 604
e 32 231
e 33 886
e 33 894
e 33 190
e 33 114
e 35 47
e 35 828
e 35 993
e 35 803
e 35 626
e 35 552
e 35 419
e 37 838
e 37 503
e 37 199
e 39 959
e 39 536
e 39 972
e 39 462
e 40 100
e 40 951
e 40 672
e 40 272
e 42 178
e 42 976
e 42 108
e 42 505
e 42 276
e 43 69
e 43 807
e 43 995
e 43 532
e 43 959
e 44 91
e 44 838
e 44 50
e 44 816
e 44 201
e 44 676
e 45 215
e 45 876
e 45 403
e 45 266
e 45 933
e 46 187
e 46 534
e 46 370
e 46 544
e 46 374
e 46 838
e 46 995
e 47 800
e 47 338
e 48 670
e 48 296
e 48 800
e 50 711
e 50 803
e 50 356
e 51 275
e 51 783
e 51 105
e 51 106
e 51 283
e 52 646
e 52 776
e 52 252
e 53 277
e 53 844
e 53 117
e 53 896
e 53 783
e 54 424
e 54 407
e 54 148
e 55 516
e 55 617
e 55 607
e 55 796
e 57 330
e 57 693
e 57 658
e 57 910
e 58 299
e 58 210
e 58 887
e 58 153
e 58 689
e 60 514
e 60 872
e 60 619
e 61 684
e 61 442
e 61 236
e 61 335
e 62 181
e 62 902
e 62 175
e 62 527
e 62 581
e 64 989
e 64 150
e 64 241
e 64 248
e 64 886
e 65 490
e 65 579
e 65 362
e 65 798
e 65 190
e 66 311
e 66 194
e 66 276
e 66 895
e 66 333
e 66 109
e 68 216
e 68 476
e 68 252
e 68 333
e 68 967
e 68 848
e 68 488
e 68 930
e 68 494
e 69 82
e 69 747
e 69 976
e 69 127
e 69 502
e 69 813
e 70 338
e 70 205
e 70 579
e 70 226
e 70 568
e 71 499
e 71 74
e 71 943
e 71 630
e 71 977
e 71 462
e 71 804
e 72 860
e 72 145
e 73 567
e 73 670
e 74 688
e 74 76
e 74 162
e 74 356
e 75 537
e 75 442
e 75 142
e 75 466
e 75 395
e 75 627
e 76 352
e 76 543
e 76 956
e 76 960
e 76 927
e 79 752
e 79 406
e 79 665
e 79 397
e 79 599
e 80 716
e 80 197
e 80 299
e 82 756
e 82 611
e 82 435
e 82 479
e 83 904
e 83 305
e 83 986
e 83 366
e 83 330
e 83 799
e 84 269
e 84 100
e 84 634
e 84 362
e 85 752
e 85 545
e 85 770
e 85 897
e 86 835
e 86 828
e 86 925
e 87 489
e 87 303
e 87 775
e 87 657
e 87 407
e 88 841
e 88 957
e 88 388
e 88 935
e 88 187
e 89 468
e 89 861
e 89 907
e 89 991
e 89 271
e 89 565
e 89 697
e 90 848
e 90 803
e 90 763
e 90 700
e 91 595
e 91 697
e 91 895
e 91 914
e 91 504
e 91 321
e 91 514
e 91 216
e 92 303
e 92 503
e 92 944
e 93 838
e 93 759
e 93 308
e 93 513
e 94 797
e 94 682
e 94 454
e 94 784
e 94 827
e 96 506
e 96 561
e 96 243
e 96 549
e 96 769
e 97 486
e 97 950
e 97 266
e 97 734
e 97 378
e 97 123
e 97 993
e 97 323
e 99 536
e 99 786
e 99 782
e 99 631
e 100 831
e 100 444
e 100 697
e 101 694
e 101 772
e 101 127
e 104 206
e 104 322
e 104 218
e 104 841
e 105 291
e 105 779
e 105 834
e 105 236
e 105 446
e 106 980
e 106 987
e 106 277
e 106 816
e 107 280
e 107 186
e 107 890
e 107 586
e 107 524
e 108 969
e 108 531
e 108 350
e 108 475
e 108 374
e 109 196
e 109 622
e 109 473
e 111 995
e 111 426
e 111 876
e 112 230
e 112 583
e 112 801
e 114 649
e 114 276
e 114 956
e 114 198
e 115 201
e 115 390
e 115 304
e 115 149
e 115 153
e 115 205
e 116 766
e 116 277
e 116 170
e 116 243
e 117 795
e 117 481
e 117 522
e 117 823
e 117 427
e 118 607
e 118 150
e 118 770
e 119 823
e 119 289
e 119 369
e 120 953
e 120 996
e 120 178
e 120 880
e 121 295
e 121 187
e 121 465
e 122 482
e 122 683
e 122 545
e 122 236
e 122 938
e 123 676
e 123 862
e 123 191
e 124 603
e 124 827
e 124 669
e 127 927
e 127 368
e 127 452
e 127 786
e 127 191
e 129 337
e 129 234
e 129 283
e 129 516
e 129 992
e 129 770
e 129 199
e 132 219
e 132 555
e 132 133
e 132 667
e 133 992
e 133 718
e 135 164
e 135 1000
e 135 401
e 136 988
e 136 975
e 136 460
e 137 887
e 137 827
e 137 538
e 137 203
e 137 521
e 137 549
e 138 452
e 138 485
e 139 316
e 139 726
e 139 384
e 139 986
e 140 351
e 140 463
e 140 486
e 140 873
e 141 802
e 141 478
e 142 269
e 142 366
e 142 610
e 142 985
e 143 341
e 143 539
e 143 326
e 143 197
e 143 946
e 143 976
e 144 787
e 144 792
e 144 317
e 144 806
e 144 581
e 144 348
e 145 718
e 145 682
e 145 197
e 146 760
e 146 951
e 146 999
e 148 163
e 148 357
e 148 706
e 149 856
e 149 799
e 149 538
e 149 399
e 150 209
e 150 582
e 150 949
e 150 657
e 151 596
e 151 944
e 151 364
e 151 766
e 151 586
e 152 825
e 152 805
e 152 488
e 152 772
e 153 595
e 154 479
e 154 474
e 154 521
e 155 575
e 155 758
e 155 221
e 155 475
e 158 870
e 158 792
e 158 715
e 158 667
e 159 191
e 159 921
e 159 197
e 159 748
e 159 610
e 160 217
e 160 434
e 160 194
e 160 336
e 161 709
e 161 810
e 161 468
e 161 288
e 162 702
e 162 952
e 162 464
e 162 985
e 162 459
e 163 733
e 163 366
e 163 597
e 163 989
e 163 534
e 163 231
e 164 386
e 164 335
e 165 833
e 165 199
e 165 758
e 165 773
e 165 968
e 167 608
e 167 570
e 167 597
e 167 836
e 167 686
e 167 284
e 167 415
e 167 352
e 168 180
e 168 309
e 168 380
e 170 775
e 170 938
e 170 463
e 170 608
e 170 926
e 174 386
e 174 755
e 174 352
e 174 957
e 174 440
e 174 374
e 175 990
e 175 320
e 175 589
e 176 378
e 176 435
e 176 298
e 176 745
e 176 438
e 176 278
e 176 273
e 177 750
e 177 384
e 177 756
e 177 808
e 178 532
e 178 976
e 178 604
e 178 257
e 180 460
e 180 844
e 180 828
e 181 589
e 181 551
e 181 988
e 182 590
e 182 249
e 182 914
e 182 716
e 182 571
e 182 657
e 182 231
e 182 975
e 184 509
e 184 904
e 184 240
e 185 460
e 185 308
e 185 243
e 185 878
e 186 916
e 186 282
e 186 798
e 186 980
e 187 632
e 188 899
e 188 744
e 188 849
e 188 596
e 188 763
e 190 715
e 190 793
e 191 779
e 191 544
e 191 649
e 191 409
e 191 568
e 191 718
e 193 209
e 193 324
e 193 526
e 193 394
e 193 945
e 193 234
e 194 259
e 194 671
e 194 999
e 194 839
e 194 226
e 194 750
e 195 794
e 195 661
e 195 458
e 195 985
e 196 620
e 196 645
e 197 545
e 197 229
e 198 427
e 198 933
e 198 912
e 198 782
e 198 530
e 199 604
e 199 931
e 199 696
e 199 485
e 199 357
e 201 768
e 201 419
e 203 559
e 203 549
e 204 950
e 204 249
e 204 945
e 204 344
e 205 609
e 205 796
e 205 575
e 205 827
e 206 488
e 206 755
e 206 879
e 206 230
e 208 360
e 208 427
e 208 659
e 208 744
e 208 596
e 209 574
e 209 494
e 209 675
e 210 355
e 210 511
e 210 671
e 210 954
e 210 610
e 213 681
e 213 292
e 213 852
e 215 398
e 215 551
e 215 841
e 216 796
e 216 496
e 216 408
e 216 551
e 217 321
e 217 960
e 217 459
e 218 401
e 218 398
e 218 721
e 219 373
e 219 981
e 219 265
e 219 972
e 219 673
e 219 240
e 220 500
e 220 635
e 220 990
e 221 779
e 221 916
e 221 765
e 221 685
e 221 831
e 221 914
e 221 638
e 222 821
e 222 836
e 224 681
e 224 731
e 224 369
e 224 363
e 226 949
e 226 359
e 226 756
e 226 373
e 227 959
e 227 466
e 227 461
e 227 925
e 227 878
e 229 496
e 229 661
e 229 971
e 229 510
e 230 872
e 230 782
e 230 440
e 231 523
e 232 408
e 232 986
e 232 832
e 232 914
e 233 378
e 233 910
e 233 476
e 234 367
e 235 486
e 235 696
e 235 369
e 236 350
e 236 831
e 236 646
e 236 461
e 239 477
e 239 854
e 239 267
e 239 923
e 239 409
e 240 616
e 240 556
e 240 690
e 240 381
e 240 527
e 241 821
e 241 546
e 241 735
e 243 837
e 243 651
e 243 645
e 243 965
e 244 393
e 244 787
e 244 265
e 244 783
e 244 916
e 244 972
e 245 292
e 245 260
e 245 842
e 247 813
e 247 414
e 247 971
e 248 910
e 248 581
e 249 948
e 249 822
e 249 671
e 249 326
e 250 379
e 250 616
e 250 343
e 250 880
e 252 799
e 252 428
e 252 734
e 253 599
e 253 500
e 253 702
e 257 931
e 257 543
e 258 309
e 258 526
e 258 291
e 259 596
e 260 807
e 260 816
e 261 932
e 261 662
e 261 575
e 261 530
e 261 863
e 261 390
e 262 424
e 262 845
e 262 894
e 262 974
e 262 388
e 262 850
e 263 922
e 263 600
e 263 384
e 264 748
e 264 856
e 264 485
e 264 806
e 264 489
e 265 341
e 265 692
e 265 761
e 265 944
e 265 352
e 266 516
e 266 965
e 266 581
e 266 839
e 266 573
e 266 471
e 266 267
e 267 565
e 267 814
e 267 431
e 267 273
e 268 848
e 268 379
e 268 557
e 268 814
e 269 454
e 269 477
e 269 803
e 271 765
e 271 614
e 272 511
e 272 473
e 272 928
e 273 399
e 273 586
e 273 607
e 275 508
e 275 381
e 275 648
e 275 348
e 276 690
e 276 869
e 276 629
e 276 977
e 277 359
e 277 833
e 277 787
e 277 943
e 277 344
e 277 523
e 278 466
e 280 985
e 280 850
e 280 300
e 280 343
e 281 975
e 281 622
e 281 819
e 282 395
e 282 552
e 283 584
e 283 343
e 283 524
e 284 428
e 284 386
e 284 967
e 284 751
e 284 763
e 287 432
e 287 948
e 287 426
e 287 858
e 287 766
e 287 496
e 288 501
e 288 365
e 288 363
e 288 771
e 289 818
e 289 962
e 291 798
e 292 836
e 293 437
e 293 419
e 293 730
e 293 904
e 295 688
e 295 478
e 295 866
e 296 641
e 296 368
e 298 530
e 298 443
e 298 605
e 299 747
e 299 870
e 299 805
e 299 772
e 300 1000
e 300 673
e 300 662
e 300 863
e 300 405
e 300 443
e 303 516
e 303 439
e 303 485
e 304 770
e 304 500
e 304 832
e 304 548
e 305 623
e 305 758
e 305 811
e 305 704
e 306 429
e 306 946
e 306 857
e 306 842
e 306 893
e 306 576
e 307 873
e 307 483
e 307 751
e 308 728
e 309 535
e 309 729
e 309 993
e 309 890
e 310 951
e 310 312
e 310 482
e 310 671
e 310 665
e 311 463
e 311 411
e 311 577
e 312 536
e 312 705
e 312 530
e 316 503
e 316 685
e 316 653
e 316 440
e 317 926
e 317 706
e 317 899
e 320 718
e 320 950
e 320 814
e 320 397
e 320 953
e 320 794
e 321 555
e 321 715
e 321 694
e 322 695
e 322 784
e 322 383
e 323 676
e 323 378
e 323 748
e 323 537
e 323 800
e 324 904
e 324 689
e 324 502
e 325 609
e 325 888
e 325 834
e 326 827
e 326 934
e 326 810
e 327 784
e 327 943
e 327 676
e 327 526
e 328 887
e 328 995
e 328 927
e 328 931
e 330 399
e 330 811
e 330 832
e 330 947
e 331 765
e 331 838
e 331 505
e 331 760
e 332 787
e 332 486
e 332 686
e 333 366
e 333 695
e 333 868
e 335 689
e 335 540
e 335 854
e 335 715
e 336 461
e 336 693
e 337 778
e 337 671
e 338 683
e 338 806
e 338 778
e 338 433
e 339 789
e 339 373
e 339 439
e 339 655
e 341 722
e 341 461
e 343 516
e 343 667
e 344 992
e 344 716
e 344 432
e 346 503
e 346 614
e 346 370
e 346 916
e 348 999
e 348 476
e 350 604
e 350 561
e 351 399
e 351 752
e 351 563
e 351 595
e 351 994
e 352 866
e 352 649
e 352 358
e 352 735
e 352 748
e 352 694
e 353 443
e 353 536
e 353 888
e 355 940
e 355 792
e 355 975
e 355 407
e 355 933
e 356 619
e 356 438
e 356 391
e 356 602
e 357 923
e 357 391
e 357 982
e 358 750
e 358 542
e 359 765
e 359 388
e 360 478
e 360 483
e 362 481
e 362 615
e 362 413
e 362 902
e 363 537
e 363 982
e 364 802
e 364 540
e 365 959
e 365 474
e 365 900
e 365 998
e 366 794
e 366 577
e 366 974
e 367 720
e 368 375
e 368 882
e 369 669
e 369 957
e 369 435
e 370 496
e 370 694
e 374 670
e 374 661
e 374 556
e 374 744
e 374 946
e 374 795
e 375 958
e 375 718
e 375 706
e 375 928
e 378 587
e 378 692
e 378 610
e 378 391
e 379 754
e 379 905
e 379 659
e 380 768
e 380 409
e 381 634
e 381 562
e 383 774
e 383 782
e 384 431
e 384 977
e 388 549
e 388 654
e 388 464
e 388 468
e 390 399
e 390 608
e 390 953
e 390 988
e 390 464
e 391 929
e 391 430
e 391 542
e 391 509
e 392 626
e 392 1000
e 392 526
e 392 572
e 392 624
e 392 988
e 392 772
e 393 850
e 393 458
e 393 847
e 393 807
e 394 719
e 395 614
e 397 754
e 398 844
e 399 539
e 399 860
e 399 653
e 399 624
e 399 411
e 400 774
e 400 653
e 400 853
e 400 949
e 401 568
e 401 947
e 403 972
e 403 755
e 403 651
e 403 779
e 405 711
e 405 969
e 406 432
e 406 899
e 406 590
e 407 894
e 408 442
e 409 486
e 409 586
e 409 448
e 410 702
e 410 658
e 410 540
e 411 693
e 413 750
e 413 548
e 413 652
e 414 659
e 414 863
e 414 428
e 414 751
e 415 693
e 415 684
e 415 494
e 415 561
e 418 845
e 418 642
e 418 631
e 418 822
e 418 626
e 418 747
e 418 525
e 419 652
e 421 711
e 421 972
e 421 796
e 424 957
e 424 583
e 426 766
e 426 470
e 428 951
e 428 938
e 429 771
e 429 453
e 430 671
e 430 604
e 430 742
e 430 789
e 431 556
e 431 483
e 431 734
e 432 583
e 433 475
e 433 931
e 433 754
e 434 592
e 434 605
e 435 555
e 437 627
e 437 630
e 438 739
e 439 878
e 439 902
e 440 652
e 440 531
e 441 465
e 441 950
e 441 916
e 442 535
e 442 577
e 442 952
e 442 533
e 442 853
e 443 823
e 444 629
e 445 858
e 445 964
e 445 595
e 446 860
e 446 923
e 446 500
e 448 799
e 448 600
e 452 858
e 453 945
e 454 876
e 454 921
e 454 747
e 454 951
e 457 900
e 457 475
e 457 873
e 457 542
e 457 724
e 457 829
e 458 501
e 458 879
e 458 700
e 459 538
e 459 735
e 461 613
e 461 776
e 462 869
e 462 673
e 462 583
e 463 579
e 464 482
e 464 757
e 465 590
e 465 954
e 465 945
e 465 818
e 465 489
e 466 794
e 468 571
e 468 655
e 470 742
e 471 879
e 471 837
e 471 849
e 473 688
e 474 591
e 474 639
e 475 829
e 476 768
e 476 747
e 477 700
e 477 574
e 477 734
e 477 995
e 477 793
e 478 940
e 478 870
e 478 556
e 479 530
e 479 555
e 479 727
e 481 532
e 481 537
e 481 945
e 481 587
e 482 916
e 482 502
e 482 798
e 482 731
e 483 757
e 485 890
e 485 563
e 485 619
e 486 551
e 486 838
e 486 895
e 486 545
e 486 832
e 488 725
e 488 533
e 489 523
e 489 629
e 489 850
e 489 857
e 489 632
e 490 869
e 490 775
e 494 878
e 496 759
e 496 513
e 497 665
e 497 940
e 497 772
e 497 722
e 497 784
e 499 649
e 499 968
e 499 780
e 499 778
e 500 655
e 500 797
e 500 886
e 501 694
e 502 956
e 503 981
e 503 962
e 503 751
e 504 662
e 504 827
e 505 998
e 505 615
e 506 720
e 506 880
e 506 583
e 506 666
e 506 508
e 508 947
e 508 862
e 508 977
e 509 602
e 509 960
e 509 894
e 510 726
e 510 649
e 510 844
e 511 759
e 513 846
e 513 772
e 513 964
e 514 954
e 521 801
e 521 657
e 521 918
e 522 964
e 522 659
e 522 603
e 523 973
e 523 626
e 523 771
e 523 715
e 524 752
e 525 705
e 525 974
e 526 642
e 526 854
e 526 977
e 527 985
e 527 747
e 527 769
e 530 570
e 531 623
e 532 878
e 533 748
e 533 834
e 534 592
e 534 720
e 535 773
e 536 836
e 536 934
e 537 894
e 537 786
e 537 639
e 538 568
e 539 594
e 539 597
e 539 861
e 539 776
e 540 816
e 540 772
e 542 616
e 542 944
e 542 806
e 543 832
e 543 761
e 543 918
e 543 854
e 544 651
e 544 739
e 545 623
e 545 727
e 545 680
e 546 778
e 546 968
e 546 984
e 546 996
e 548 742
e 548 945
e 548 949
e 549 709
e 551 776
e 552 582
e 555 834
e 555 611
e 555 832
e 555 709
e 557 676
e 557 965
e 557 567
e 559 927
e 559 829
e 559 891
e 560 819
e 560 811
e 560 825
e 560 620
e 560 718
e 562 958
e 562 704
e 562 734
e 563 670
e 563 683
e 563 872
e 563 705
e 563 668
e 565 724
e 565 587
e 565 994
e 567 841
e 567 719
e 567 736
e 568 673
e 570 995
e 571 825
e 571 841
e 572 976
e 572 670
e 573 800
e 573 860
e 573 620
e 574 730
e 574 589
e 575 998
e 575 923
e 576 763
e 576 910
e 577 748
e 580 775
e 580 891
e 580 684
e 581 922
e 581 910
e 581 980
e 581 943
e 581 629
e 581 957
e 581 810
e 582 838
e 582 920
e 584 722
e 584 952
e 584 950
e 586 685
e 586 706
e 586 759
e 587 780
e 587 665
e 587 728
e 589 833
e 590 754
e 591 949
e 591 950
e 592 841
e 594 846
e 594 807
e 595 948
e 595 950
e 596 604
e 597 688
e 597 905
e 599 928
e 599 666
e 600 985
e 600 609
e 600 835
e 603 616
e 604 724
e 604 758
e 605 634
e 605 909
e 605 621
e 605 667
e 607 821
e 608 804
e 609 990
e 610 771
e 611 829
e 611 929
e 611 869
e 613 784
e 613 984
e 613 969
e 615 943
e 617 626
e 617 763
e 617 668
e 619 816
e 619 841
e 619 667
e 620 961
e 621 794
e 621 893
e 621 645
e 621 733
e 621 748
e 622 650
e 623 831
e 624 672
e 624 763
e 626 816
e 627 720
e 627 787
e 630 926
e 630 951
e 631 925
e 631 688
e 632 635
e 632 927
e 632 972
e 634 668
e 634 757
e 635 835
e 635 977
e 635 929
e 635 793
e 635 842
e 638 646
e 638 945
e 638 811
e 639 834
e 639 694
e 639 912
e 641 646
e 641 890
e 641 814
e 642 922
e 645 806
e 648 886
e 648 847
e 650 956
e 651 847
e 651 768
e 651 998
e 653 927
e 654 923
e 654 792
e 658 861
e 659 736
e 661 973
e 661 759
e 662 709
e 664 690
e 664 990
e 664 842
e 665 681
e 665 674
e 666 1000
e 668 905
e 668 891
e 669 727
e 670 766
e 670 973
e 671 905
e 672 763
e 672 886
e 674 722
e 674 968
e 675 869
e 675 676
e 680 854
e 680 856
e 681 692
e 682 803
e 682 992
e 683 910
e 683 921
e 683 693
e 685 750
e 686 842
e 690 866
e 690 848
e 692 763
e 694 878
e 695 709
e 695 787
e 695 882
e 696 922
e 696 948
e 697 980
e 700 800
e 700 964
e 700 910
e 702 731
e 702 808
e 704 849
e 706 953
e 706 747
e 706 775
e 709 768
e 711 905
e 718 726
e 718 996
e 719 920
e 719 729
e 720 897
e 721 866
e 724 846
e 725 866
e 725 858
e 726 971
e 727 795
e 727 841
e 727 861
e 729 882
e 730 894
e 733 782
e 735 932
e 735 867
e 736 862
e 739 782
e 744 945
e 744 948
e 745 904
e 745 799
e 747 763
e 747 794
e 748 861
e 748 804
e 750 945
e 751 946
e 752 876
e 752 888
e 754 982
e 757 927
e 757 873
e 758 925
e 759 964
e 760 981
e 761 878
e 768 952
e 768 895
e 769 952
e 771 886
e 772 985
e 773 935
e 775 908
e 776 807
e 778 795
e 778 918
e 778 838
e 778 867
e 779 928
e 779 967
e 780 985
e 782 850
e 782 844
e 784 813
e 786 967
e 786 940
e 786 968
e 792 886
e 797 857
e 797 823
e 797 962
e 799 848
e 799 839
e 801 852
e 801 831
e 802 887
e 802 930
e 802 984
e 803 893
e 803 920
e 805 961
e 806 907
e 807 951
e 807 839
e 807 833
e 808 933
e 810 971
e 810 945
e 810 996
e 810 936
e 816 985
e 816 869
e 818 879
e 818 861
e 819 835
e 819 938
e 822 921
e 822 993
e 822 837
e 827 850
e 827 949
e 828 921
e 829 886
e 831 894
e 834 1000
e 837 956
e 837 849
e 837 996
e 839 991
e 841 873
e 842 879
e 845 971
e 845 989
e 847 987
e 848 989
e 848 878
e 850 908
e 852 963
e 853 957
e 853 896
e 857 888
e 857 904
e 858 934
e 861 968
e 866 987
e 868 944
e 868 991
e 869 895
e 869 907
e 870 996
e 870 930
e 872 891
e 872 964
e 876 891
e 879 996
e 879 900
e 880 999
e 882 943
e 886 936
e 888 912
e 888 938
e 890 963
e 894 902
e 895 963
e 896 950
e 897 940
e 909 957
e 912 949
e 923 957
e 925 954
e 930 951
e 932 949
e 935 1000
e 936 994
e 940 958
e 944 953
e 946 993
e 956 961
e 958 989
